H2O                                     
   1.00000000000000     
     7.946534    0.000000    0.000000
     0.000000    7.946534    0.000000
     0.000000    0.000000    7.946534
   O    H 
    16    32
Direct
  0.710882  0.678263  0.739514
  0.159251  0.857224  0.424196
  0.168362  0.682161  0.925477
  0.407212  0.218646  0.994808
  0.313960  0.895350  0.118941
  0.899374  0.359931  0.311710
  0.889506  0.690146  0.428678
  0.659121  0.871833  0.192558
  0.404035  0.373677  0.533379
  0.607492  0.240059  0.273023
  0.623543  0.345422  0.778623
  0.936355  0.175871  0.823102
  0.112820  0.368023  0.054321
  0.882667  0.873145  0.943538
  0.354304  0.681122  0.621536
  0.112482  0.213914  0.535095
  0.777166  0.745508  0.815091
  0.250495  0.792865  0.484315
  0.764401  0.680438  0.627390
  0.197671  0.894611  0.311030
  0.230452  0.675002  0.813962
  0.060589  0.738172  0.895093
  0.480247  0.233540  0.097156
  0.304940  0.277292  0.016833
  0.295478  0.001716  0.062934
  0.979118  0.364892  0.222829
  0.287881  0.805610  0.032750
  0.903112  0.473935  0.351562
  0.992541  0.760300  0.443032
  0.461168  0.715868  0.679818
  0.036671  0.249452  0.450499
  0.537210  0.887035  0.170947
  0.492136  0.337731  0.610083
  0.720535  0.281096  0.305146
  0.315123  0.297722  0.545559
  0.542442  0.300211  0.354841
  0.547276  0.308246  0.870821
  0.649270  0.469711  0.784257
  0.835537  0.244177  0.790758
  0.008456  0.188022  0.722423
  0.036979  0.293048  0.985243
  0.891275  0.990219  0.903921
  0.107215  0.475694  0.001338
  0.808201  0.873321  0.042274
  0.357301  0.564556  0.584135
  0.815467  0.745166  0.345429
  0.683097  0.983571  0.232505
  0.141928  0.098089  0.513371